
Gurobi 10.0.1 (win64) logging started Sat Sep  9 14:28:30 2023

Set parameter LogFile to value "results-heuristic-start//log/URT_04_deadline.log"
Gurobi Optimizer version 10.0.1 build v10.0.1rc0 (win64)

CPU model: AMD Ryzen 7 3700X 8-Core Processor, instruction set [SSE2|AVX|AVX2]
Thread count: 8 physical cores, 16 logical processors, using up to 16 threads

Optimize a model with 57 rows, 52 columns and 181 nonzeros
Model fingerprint: 0x3dee1c3e
Model has 1 quadratic constraint
Variable types: 6 continuous, 46 integer (45 binary)
Coefficient statistics:
  Matrix range     [1e+00, 1e+06]
  QMatrix range    [1e+00, 1e+00]
  QLMatrix range   [1e+00, 7e+00]
  Objective range  [1e+00, 1e+00]
  Bounds range     [1e+00, 1e+00]
  RHS range        [1e+00, 3e+06]

User MIP start produced solution with objective 593 (0.01s)
Loaded user MIP start with objective 593

Presolve removed 35 rows and 37 columns
Presolve time: 0.00s
Presolved: 22 rows, 15 columns, 62 nonzeros
Variable types: 6 continuous, 9 integer (8 binary)
Found heuristic solution: objective 592.0000000

Root relaxation: objective 9.000000e+00, 7 iterations, 0.00 seconds (0.00 work units)

    Nodes    |    Current Node    |     Objective Bounds      |     Work
 Expl Unexpl |  Obj  Depth IntInf | Incumbent    BestBd   Gap | It/Node Time

     0     0    9.00000    0    6  592.00000    9.00000  98.5%     -    0s
H    0     0                      80.0000000   32.00000  60.0%     -    0s
H    0     0                      75.0000000   32.00000  57.3%     -    0s
     0     0   32.00000    0    6   75.00000   32.00000  57.3%     -    0s
     0     0   75.00000    0    3   75.00000   75.00000  0.00%     -    0s

Cutting planes:
  Implied bound: 2
  Relax-and-lift: 3

Explored 1 nodes (38 simplex iterations) in 0.05 seconds (0.00 work units)
Thread count was 16 (of 16 available processors)

Solution count 4: 75 80 592 593 

Optimal solution found (tolerance 1.00e-04)
Best objective 7.500000000000e+01, best bound 7.500000000000e+01, gap 0.0000%
Warning: constraint name "precedence between 0,1 to 0,0 if x_[j,l,h,z,i]=1" has a space
Warning: constraint name "precedence between 0,1 to 0,0 if x_[j,l,h,z,i]=1" has a space
Warning: default constraint names used to write mps file
